p cnf 150 631
1 2 3 4 5 0
6 7 8 9 10 0
11 12 13 14 15 0
16 17 18 19 20 0
21 22 23 24 25 0
26 27 28 29 30 0
31 32 33 34 35 0
36 37 38 39 40 0
41 42 43 44 45 0
46 47 48 49 50 0
51 52 53 54 55 0
56 57 58 59 60 0
61 62 63 64 65 0
66 67 68 69 70 0
71 72 73 74 75 0
76 77 78 79 80 0
81 82 83 84 85 0
86 87 88 89 90 0
91 92 93 94 95 0
96 97 98 99 100 0
101 102 103 104 105 0
106 107 108 109 110 0
111 112 113 114 115 0
116 117 118 119 120 0
121 122 123 124 125 0
126 127 128 129 130 0
131 132 133 134 135 0
136 137 138 139 140 0
141 142 143 144 145 0
146 147 148 149 150 0
-1 -2 0
-1 -3 0
-1 -4 0
-1 -5 0
-2 -3 0
-2 -4 0
-2 -5 0
-3 -4 0
-3 -5 0
-4 -5 0
-6 -7 0
-6 -8 0
-6 -9 0
-6 -10 0
-7 -8 0
-7 -9 0
-7 -10 0
-8 -9 0
-8 -10 0
-9 -10 0
-11 -12 0
-11 -13 0
-11 -14 0
-11 -15 0
-12 -13 0
-12 -14 0
-12 -15 0
-13 -14 0
-13 -15 0
-14 -15 0
-16 -17 0
-16 -18 0
-16 -19 0
-16 -20 0
-17 -18 0
-17 -19 0
-17 -20 0
-18 -19 0
-18 -20 0
-19 -20 0
-21 -22 0
-21 -23 0
-21 -24 0
-21 -25 0
-22 -23 0
-22 -24 0
-22 -25 0
-23 -24 0
-23 -25 0
-24 -25 0
-26 -27 0
-26 -28 0
-26 -29 0
-26 -30 0
-27 -28 0
-27 -29 0
-27 -30 0
-28 -29 0
-28 -30 0
-29 -30 0
-31 -32 0
-31 -33 0
-31 -34 0
-31 -35 0
-32 -33 0
-32 -34 0
-32 -35 0
-33 -34 0
-33 -35 0
-34 -35 0
-36 -37 0
-36 -38 0
-36 -39 0
-36 -40 0
-37 -38 0
-37 -39 0
-37 -40 0
-38 -39 0
-38 -40 0
-39 -40 0
-41 -42 0
-41 -43 0
-41 -44 0
-41 -45 0
-42 -43 0
-42 -44 0
-42 -45 0
-43 -44 0
-43 -45 0
-44 -45 0
-46 -47 0
-46 -48 0
-46 -49 0
-46 -50 0
-47 -48 0
-47 -49 0
-47 -50 0
-48 -49 0
-48 -50 0
-49 -50 0
-51 -52 0
-51 -53 0
-51 -54 0
-51 -55 0
-52 -53 0
-52 -54 0
-52 -55 0
-53 -54 0
-53 -55 0
-54 -55 0
-56 -57 0
-56 -58 0
-56 -59 0
-56 -60 0
-57 -58 0
-57 -59 0
-57 -60 0
-58 -59 0
-58 -60 0
-59 -60 0
-61 -62 0
-61 -63 0
-61 -64 0
-61 -65 0
-62 -63 0
-62 -64 0
-62 -65 0
-63 -64 0
-63 -65 0
-64 -65 0
-66 -67 0
-66 -68 0
-66 -69 0
-66 -70 0
-67 -68 0
-67 -69 0
-67 -70 0
-68 -69 0
-68 -70 0
-69 -70 0
-71 -72 0
-71 -73 0
-71 -74 0
-71 -75 0
-72 -73 0
-72 -74 0
-72 -75 0
-73 -74 0
-73 -75 0
-74 -75 0
-76 -77 0
-76 -78 0
-76 -79 0
-76 -80 0
-77 -78 0
-77 -79 0
-77 -80 0
-78 -79 0
-78 -80 0
-79 -80 0
-81 -82 0
-81 -83 0
-81 -84 0
-81 -85 0
-82 -83 0
-82 -84 0
-82 -85 0
-83 -84 0
-83 -85 0
-84 -85 0
-86 -87 0
-86 -88 0
-86 -89 0
-86 -90 0
-87 -88 0
-87 -89 0
-87 -90 0
-88 -89 0
-88 -90 0
-89 -90 0
-91 -92 0
-91 -93 0
-91 -94 0
-91 -95 0
-92 -93 0
-92 -94 0
-92 -95 0
-93 -94 0
-93 -95 0
-94 -95 0
-96 -97 0
-96 -98 0
-96 -99 0
-96 -100 0
-97 -98 0
-97 -99 0
-97 -100 0
-98 -99 0
-98 -100 0
-99 -100 0
-101 -102 0
-101 -103 0
-101 -104 0
-101 -105 0
-102 -103 0
-102 -104 0
-102 -105 0
-103 -104 0
-103 -105 0
-104 -105 0
-106 -107 0
-106 -108 0
-106 -109 0
-106 -110 0
-107 -108 0
-107 -109 0
-107 -110 0
-108 -109 0
-108 -110 0
-109 -110 0
-111 -112 0
-111 -113 0
-111 -114 0
-111 -115 0
-112 -113 0
-112 -114 0
-112 -115 0
-113 -114 0
-113 -115 0
-114 -115 0
-116 -117 0
-116 -118 0
-116 -119 0
-116 -120 0
-117 -118 0
-117 -119 0
-117 -120 0
-118 -119 0
-118 -120 0
-119 -120 0
-121 -122 0
-121 -123 0
-121 -124 0
-121 -125 0
-122 -123 0
-122 -124 0
-122 -125 0
-123 -124 0
-123 -125 0
-124 -125 0
-126 -127 0
-126 -128 0
-126 -129 0
-126 -130 0
-127 -128 0
-127 -129 0
-127 -130 0
-128 -129 0
-128 -130 0
-129 -130 0
-131 -132 0
-131 -133 0
-131 -134 0
-131 -135 0
-132 -133 0
-132 -134 0
-132 -135 0
-133 -134 0
-133 -135 0
-134 -135 0
-136 -137 0
-136 -138 0
-136 -139 0
-136 -140 0
-137 -138 0
-137 -139 0
-137 -140 0
-138 -139 0
-138 -140 0
-139 -140 0
-141 -142 0
-141 -143 0
-141 -144 0
-141 -145 0
-142 -143 0
-142 -144 0
-142 -145 0
-143 -144 0
-143 -145 0
-144 -145 0
-146 -147 0
-146 -148 0
-146 -149 0
-146 -150 0
-147 -148 0
-147 -149 0
-147 -150 0
-148 -149 0
-148 -150 0
-149 -150 0
-3 -7 0
-1 -7 0
-1 -10 0
-5 -10 0
-1 -9 0
-3 -10 0
-3 -9 0
-4 -123 0
-4 -121 0
-2 -123 0
-5 -124 0
-3 -121 0
-5 -125 0
-1 -121 0
-8 -21 0
-6 -24 0
-10 -21 0
-6 -22 0
-7 -23 0
-10 -23 0
-10 -24 0
-10 -76 0
-8 -79 0
-6 -80 0
-6 -79 0
-10 -80 0
-7 -77 0
-6 -78 0
-11 -27 0
-11 -29 0
-14 -27 0
-13 -27 0
-13 -29 0
-11 -30 0
-13 -30 0
-12 -72 0
-14 -71 0
-15 -72 0
-11 -72 0
-12 -73 0
-15 -75 0
-13 -74 0
-12 -81 0
-15 -85 0
-13 -85 0
-13 -81 0
-12 -83 0
-13 -83 0
-14 -85 0
-16 -72 0
-16 -75 0
-19 -72 0
-20 -73 0
-16 -71 0
-18 -75 0
-17 -74 0
-19 -104 0
-17 -105 0
-20 -105 0
-17 -101 0
-20 -103 0
-16 -105 0
-19 -101 0
-22 -43 0
-21 -42 0
-23 -42 0
-21 -45 0
-24 -45 0
-23 -44 0
-23 -43 0
-22 -103 0
-22 -102 0
-23 -105 0
-21 -101 0
-24 -104 0
-21 -103 0
-23 -104 0
-21 -140 0
-25 -136 0
-25 -137 0
-25 -140 0
-21 -136 0
-23 -136 0
-22 -139 0
-30 -37 0
-27 -36 0
-27 -37 0
-29 -37 0
-28 -37 0
-27 -38 0
-28 -40 0
-31 -133 0
-31 -131 0
-34 -131 0
-35 -132 0
-31 -134 0
-32 -132 0
-31 -132 0
-33 -145 0
-35 -141 0
-33 -143 0
-31 -144 0
-35 -142 0
-31 -141 0
-32 -144 0
-36 -43 0
-40 -42 0
-36 -45 0
-40 -41 0
-37 -41 0
-38 -44 0
-39 -44 0
-36 -90 0
-38 -88 0
-36 -88 0
-37 -88 0
-38 -86 0
-38 -87 0
-37 -89 0
-38 -103 0
-38 -102 0
-36 -101 0
-37 -101 0
-37 -102 0
-40 -104 0
-39 -103 0
-37 -117 0
-40 -120 0
-37 -120 0
-39 -118 0
-40 -116 0
-36 -117 0
-39 -120 0
-47 -136 0
-47 -140 0
-50 -139 0
-50 -140 0
-50 -138 0
-47 -139 0
-49 -137 0
-54 -80 0
-51 -76 0
-52 -79 0
-53 -78 0
-53 -77 0
-54 -78 0
-54 -79 0
-54 -81 0
-51 -84 0
-55 -83 0
-54 -82 0
-51 -81 0
-52 -81 0
-54 -85 0
-51 -108 0
-55 -109 0
-54 -107 0
-55 -107 0
-55 -106 0
-55 -108 0
-54 -108 0
-54 -119 0
-53 -118 0
-52 -118 0
-51 -117 0
-53 -116 0
-53 -120 0
-54 -118 0
-58 -84 0
-57 -81 0
-57 -85 0
-56 -85 0
-60 -82 0
-56 -83 0
-58 -82 0
-56 -142 0
-56 -144 0
-59 -141 0
-57 -142 0
-60 -142 0
-58 -143 0
-56 -141 0
-57 -147 0
-57 -150 0
-60 -148 0
-58 -146 0
-60 -150 0
-59 -146 0
-60 -149 0
-65 -75 0
-64 -72 0
-63 -72 0
-63 -75 0
-65 -72 0
-63 -71 0
-65 -74 0
-65 -97 0
-64 -98 0
-62 -96 0
-63 -96 0
-63 -98 0
-65 -100 0
-63 -97 0
-64 -128 0
-61 -128 0
-65 -128 0
-63 -129 0
-63 -128 0
-61 -129 0
-65 -126 0
-71 -150 0
-73 -147 0
-74 -149 0
-72 -149 0
-73 -150 0
-74 -146 0
-75 -149 0
-77 -95 0
-80 -91 0
-79 -91 0
-77 -92 0
-78 -94 0
-78 -93 0
-76 -94 0
-78 -113 0
-78 -111 0
-78 -114 0
-78 -115 0
-80 -113 0
-76 -112 0
-79 -112 0
-81 -86 0
-83 -88 0
-81 -88 0
-83 -86 0
-82 -87 0
-82 -90 0
-85 -88 0
-84 -97 0
-85 -99 0
-81 -99 0
-84 -98 0
-85 -96 0
-81 -97 0
-81 -98 0
-90 -130 0
-88 -128 0
-88 -126 0
-87 -127 0
-87 -126 0
-86 -128 0
-86 -127 0
-92 -97 0
-93 -96 0
-94 -100 0
-91 -97 0
-92 -100 0
-93 -100 0
-95 -96 0
-93 -111 0
-91 -113 0
-94 -111 0
-91 -112 0
-95 -115 0
-95 -112 0
-92 -114 0
-94 -120 0
-95 -118 0
-92 -119 0
-91 -118 0
-92 -118 0
-93 -117 0
-95 -117 0
-114 -137 0
-115 -137 0
-115 -136 0
-113 -136 0
-111 -136 0
-114 -136 0
-112 -137 0
-117 -143 0
-119 -144 0
-118 -143 0
-117 -142 0
-116 -144 0
-119 -143 0
-119 -145 0
-132 -145 0
-134 -141 0
-134 -143 0
-131 -145 0
-135 -144 0
-131 -144 0
-135 -145 0
-140 -142 0
-138 -143 0
-137 -143 0
-138 -144 0
-140 -141 0
-139 -143 0
-136 -145 0
